500
750
598
596
592
591
588
585
585
583
582
580
580
579
578
577
576
576
575
571
570
567
565
565
564
564
563
563
562
561
561
560
560
560
560
558
557
556
556
555
555
554
553
552
552
551
550
548
547
547
545
545
544
544
544
543
540
539
539
534
533
533
531
529
528
528
527
527
524
523
522
522
522
519
516
514
512
512
511
510
509
507
505
505
503
503
503
502
500
499
497
497
497
495
494
493
492
490
490
490
489
489
488
488
488
487
487
484
483
483
482
481
481
479
479
478
477
477
476
475
475
474
473
469
467
466
466
465
465
463
462
461
460
458
453
453
453
449
447
446
443
443
441
440
439
436
436
435
434
432
431
430
429
428
428
427
426
426
425
424
423
422
421
421
421
418
418
418
417
415
414
414
411
411
410
407
406
406
405
404
404
403
401
401
401
399
394
392
391
390
388
388
387
386
386
385
385
383
382
381
379
378
378
377
376
375
375
375
374
374
373
373
369
367
366
366
366
365
365
363
362
361
361
360
359
357
356
355
355
353
353
352
350
350
349
348
348
347
343
341
341
341
338
337
336
336
335
335
335
334
333
332
332
331
330
329
328
327
323
323
322
322
320
320
318
318
317
315
313
313
311
310
307
306
303
301
301
301
301
301
299
299
299
298
298
297
297
297
297
297
296
296
296
295
295
294
294
293
292
291
291
291
290
289
287
287
286
286
286
285
285
282
282
282
280
280
280
278
277
277
275
274
274
273
271
271
271
271
268
267
267
267
266
266
265
265
263
262
258
258
256
256
255
253
253
252
252
251
249
249
247
245
245
245
244
244
243
241
240
238
238
236
233
228
228
227
226
226
225
225
222
218
217
217
214
213
213
212
211
211
208
208
208
207
205
204
204
202
202
200
199
198
195
194
192
186
186
186
186
185
185
183
181
180
179
177
177
175
174
173
173
170
169
167
167
165
165
165
165
165
164
163
163
163
162
162
162
161
160
160
160
156
156
154
153
153
153
152
150
147
147
146
146
145
145
142
141
134
134
133
132
131
130
129
129
128
127
126
123
121
121
120
118
118
118
116
116
114
113
113
113
110
109
108
106
105
103
101
99
99
98
98
93
92
92
92
91
91
90
89
86
85
85
85
84
83
83
82
82
81
77
76
